p cnf 7230 17
-578 -2572 -2798 0
-576 -2580 -2796 0
-574 -2582 -2794 0
578 -2799 0
576 -2797 0
574 -2795 0
2798 2799 0
2796 2797 0
2794 2795 0
2572 -2799 0
2580 -2797 0
2582 -2795 0
-580 -2570 2801 0
2792 2793 0
-2792 -2793 0
2570 -2801 0
580 -2801 0
